(set-info :source  loris-7.ddns.comp.nus.edu.sg/~project/hip/) 
;Variables declarations
(declare-fun bhl_8496 () Int)
(declare-fun bhr_8499 () Int)
(declare-fun bh_8378 () Int)
(declare-fun bhr_8928 () Int)
(declare-fun bhl_8924 () Int)
(declare-fun bh () Int)
(declare-fun bhr_8354 () Int)
(declare-fun bhl_8350 () Int)
(declare-fun n_8376 () Int)
(declare-fun flted_238_8355 () Int)
(declare-fun flted_238_8357 () Int)
(declare-fun h () Int)
(declare-fun nl_8495 () Int)
(declare-fun nr_8498 () Int)
(declare-fun n () Int)
(declare-fun flted_156_8903 () Int)
(declare-fun h_8518 () Int)
(declare-fun nb_8516 () Int)
(declare-fun nc_8517 () Int)
(declare-fun nd () Int)
(declare-fun flted_156_8901 () Int)
(declare-fun na_8515 () Int)
(declare-fun nr_8352 () Int)
(declare-fun nl_8348 () Int)
(declare-fun nl_8922 () Int)
(declare-fun nr_8926 () Int)
(declare-fun nc () Int)
(declare-fun nb () Int)
(declare-fun na () Int)
;Relations declarations
;Axioms assertions
;Antecedent
(assert (<= 1 bhl_8496))
(assert (<= 1 bhr_8499))
(assert (= bhl_8496 bh_8378))
(assert (= bhr_8499 bh_8378))
(assert (<= 1 bh_8378))
(assert (<= 1 bhl_8350))
(assert (= bh_8378 bhl_8350))
(assert (= bhr_8928 flted_238_8355))
(assert (= bhl_8924 flted_156_8903))
(assert (<= 1 h))
(assert (<= 0 nl_8495))
(assert (<= 0 nr_8498))
(assert (<= 1 bh))
(assert (<= 0 n))
(assert (<= 1 bhr_8354))
(assert (= bh bhr_8354))
(assert (= bhl_8350 bhr_8354))
(assert (= flted_238_8357 (+ bhl_8350 1)))
(assert (<= 1 flted_156_8903))
(assert (<= 0 flted_156_8901))
(assert (<= 1 flted_238_8355))
(assert (= n_8376 (+ (+ nr_8498 1) nl_8495)))
(assert (<= 0 n_8376))
(assert (<= 0 nl_8348))
(assert (= n_8376 nl_8348))
(assert (= flted_238_8355 (+ 1 h)))
(assert (= flted_238_8357 (+ 1 h)))
(assert (= n nr_8352))
(assert (<= 0 nr_8352))
(assert (= h_8518 h))
(assert (= nb_8516 nl_8495))
(assert (= nc_8517 nr_8498))
(assert (= nd n))
(assert (= flted_156_8901 (+ (+ (+ (+ 3 nc_8517) na_8515) nb_8516) nd)))
(assert (= flted_156_8903 (+ 1 h_8518)))
(assert (or (and (and (and (and (and (and (and (and (and (and (and (exists ((flted_153_9251 Int)) (and (<= 0 flted_153_9251) (<= flted_153_9251 1))) (exists ((flted_153_9250 Int)) (and (<= 0 flted_153_9250) (<= flted_153_9250 1)))) (exists ((flted_153_9249 Int)) (and (<= 0 flted_153_9249) (<= flted_153_9249 1)))) (exists ((flted_153_9248 Int)) (and (<= 0 flted_153_9248) (<= flted_153_9248 1)))) (exists ((h_9247 Int)) (<= 1 h_9247))) (exists ((h_9246 Int)) (<= 1 h_9246))) (exists ((h_9245 Int)) (<= 1 h_9245))) (<= 0 na_8515)) (<= 1 h_8518)) (<= 0 nb_8516)) (<= 0 nc_8517)) (<= 0 nd)) (and (and (and (and (and (and (and (and (and (and (and (exists ((flted_154_9244 Int)) (and (<= 0 flted_154_9244) (<= flted_154_9244 1))) (exists ((flted_154_9243 Int)) (and (<= 0 flted_154_9243) (<= flted_154_9243 1)))) (exists ((flted_154_9242 Int)) (and (<= 0 flted_154_9242) (<= flted_154_9242 1)))) (exists ((flted_154_9241 Int)) (and (<= 0 flted_154_9241) (<= flted_154_9241 1)))) (exists ((h_9240 Int)) (<= 1 h_9240))) (exists ((h_9239 Int)) (<= 1 h_9239))) (exists ((h_9238 Int)) (<= 1 h_9238))) (<= 0 na_8515)) (<= 1 h_8518)) (<= 0 nb_8516)) (<= 0 nc_8517)) (<= 0 nd))))
(assert (= nr_8926 nc))
(assert (= nl_8922 flted_156_8901))
(assert (<= 0 na))
(assert (= na_8515 na))
(assert (= nb (+ (+ nr_8352 1) nl_8348)))
(assert (<= 0 nc))
;Negation of Consequence
(assert (not (= (+ (+ nl_8922 nr_8926) 1) (+ (+ (+ nc nb) 2) na))))
(check-sat)